Al8 Cu4
1.0
6.019232 0.000000 0.000000
0.000000 6.019232 0.000000
0.000000 0.000000 4.908132
Al Cu
8 4
direct
0.841136 0.658864 0.500000 Al
0.841136 0.341136 0.000000 Al
0.158864 0.341136 0.500000 Al
0.658864 0.158864 0.500000 Al
0.341136 0.158864 0.000000 Al
0.341136 0.841136 0.500000 Al
0.658864 0.841136 0.000000 Al
0.158864 0.658864 0.000000 Al
0.500000 0.500000 0.750000 Cu
0.000000 0.000000 0.750000 Cu
0.000000 0.000000 0.250000 Cu
0.500000 0.500000 0.250000 Cu
